data/mps_files/q3/161_8.mps
NAME foo
ROWS
 N  OBJ
 E  allocateEach[1]
 E  allocateAllCash
 G  findWorstP[1,2]
 G  findWorstP[1,3]
 G  findWorstP[1,4]
 G  findWorstP[1,5]
 G  findWorstP[1,6]
 G  findWorstP[1,7]
 G  findWorstP[1,8]
 G  findWorstP[1,9]
 G  findWorstP[2,1]
 G  findWorstP[2,3]
 G  findWorstP[2,4]
 G  findWorstP[2,5]
 G  findWorstP[2,6]
 G  findWorstP[2,7]
 G  findWorstP[2,8]
 G  findWorstP[2,9]
 G  findWorstP[3,1]
 G  findWorstP[3,2]
 G  findWorstP[3,4]
 G  findWorstP[3,5]
 G  findWorstP[3,6]
 G  findWorstP[3,7]
 G  findWorstP[3,8]
 G  findWorstP[3,9]
 G  findWorstP[4,1]
 G  findWorstP[4,2]
 G  findWorstP[4,3]
 G  findWorstP[4,5]
 G  findWorstP[4,6]
 G  findWorstP[4,7]
 G  findWorstP[4,8]
 G  findWorstP[4,9]
 G  findWorstP[5,1]
 G  findWorstP[5,2]
 G  findWorstP[5,3]
 G  findWorstP[5,4]
 G  findWorstP[5,6]
 G  findWorstP[5,7]
 G  findWorstP[5,8]
 G  findWorstP[5,9]
 G  findWorstP[6,1]
 G  findWorstP[6,2]
 G  findWorstP[6,3]
 G  findWorstP[6,4]
 G  findWorstP[6,5]
 G  findWorstP[6,7]
 G  findWorstP[6,8]
 G  findWorstP[6,9]
 G  findWorstP[7,1]
 G  findWorstP[7,2]
 G  findWorstP[7,3]
 G  findWorstP[7,4]
 G  findWorstP[7,5]
 G  findWorstP[7,6]
 G  findWorstP[7,8]
 G  findWorstP[7,9]
 G  findWorstP[8,1]
 G  findWorstP[8,2]
 G  findWorstP[8,3]
 G  findWorstP[8,4]
 G  findWorstP[8,5]
 G  findWorstP[8,6]
 G  findWorstP[8,7]
 G  findWorstP[8,9]
 G  findWorstP[9,1]
 G  findWorstP[9,2]
 G  findWorstP[9,3]
 G  findWorstP[9,4]
 G  findWorstP[9,5]
 G  findWorstP[9,6]
 G  findWorstP[9,7]
 G  findWorstP[9,8]
COLUMNS
    z         OBJ       1
    z         findWorstP[1,2]  1
    z         findWorstP[1,3]  1
    z         findWorstP[1,4]  1
    z         findWorstP[1,5]  1
    z         findWorstP[1,6]  1
    z         findWorstP[1,7]  1
    z         findWorstP[1,8]  1
    z         findWorstP[1,9]  1
    z         findWorstP[2,1]  1
    z         findWorstP[2,3]  1
    z         findWorstP[2,4]  1
    z         findWorstP[2,5]  1
    z         findWorstP[2,6]  1
    z         findWorstP[2,7]  1
    z         findWorstP[2,8]  1
    z         findWorstP[2,9]  1
    z         findWorstP[3,1]  1
    z         findWorstP[3,2]  1
    z         findWorstP[3,4]  1
    z         findWorstP[3,5]  1
    z         findWorstP[3,6]  1
    z         findWorstP[3,7]  1
    z         findWorstP[3,8]  1
    z         findWorstP[3,9]  1
    z         findWorstP[4,1]  1
    z         findWorstP[4,2]  1
    z         findWorstP[4,3]  1
    z         findWorstP[4,5]  1
    z         findWorstP[4,6]  1
    z         findWorstP[4,7]  1
    z         findWorstP[4,8]  1
    z         findWorstP[4,9]  1
    z         findWorstP[5,1]  1
    z         findWorstP[5,2]  1
    z         findWorstP[5,3]  1
    z         findWorstP[5,4]  1
    z         findWorstP[5,6]  1
    z         findWorstP[5,7]  1
    z         findWorstP[5,8]  1
    z         findWorstP[5,9]  1
    z         findWorstP[6,1]  1
    z         findWorstP[6,2]  1
    z         findWorstP[6,3]  1
    z         findWorstP[6,4]  1
    z         findWorstP[6,5]  1
    z         findWorstP[6,7]  1
    z         findWorstP[6,8]  1
    z         findWorstP[6,9]  1
    z         findWorstP[7,1]  1
    z         findWorstP[7,2]  1
    z         findWorstP[7,3]  1
    z         findWorstP[7,4]  1
    z         findWorstP[7,5]  1
    z         findWorstP[7,6]  1
    z         findWorstP[7,8]  1
    z         findWorstP[7,9]  1
    z         findWorstP[8,1]  1
    z         findWorstP[8,2]  1
    z         findWorstP[8,3]  1
    z         findWorstP[8,4]  1
    z         findWorstP[8,5]  1
    z         findWorstP[8,6]  1
    z         findWorstP[8,7]  1
    z         findWorstP[8,9]  1
    z         findWorstP[9,1]  1
    z         findWorstP[9,2]  1
    z         findWorstP[9,3]  1
    z         findWorstP[9,4]  1
    z         findWorstP[9,5]  1
    z         findWorstP[9,6]  1
    z         findWorstP[9,7]  1
    z         findWorstP[9,8]  1
    cashProportion[1]  allocateAllCash  1
    cashProportion[1]  findWorstP[1,2]  6.4107700937575129e-01
    cashProportion[1]  findWorstP[1,3]  6.4107700937575129e-01
    cashProportion[1]  findWorstP[1,4]  6.4107700937575129e-01
    cashProportion[1]  findWorstP[1,5]  6.4107700937575129e-01
    cashProportion[1]  findWorstP[1,6]  6.4107700937575129e-01
    cashProportion[1]  findWorstP[1,7]  6.4107700937575129e-01
    cashProportion[1]  findWorstP[1,8]  6.4107700937575129e-01
    cashProportion[1]  findWorstP[1,9]  6.4107700937575129e-01
    cashProportion[1]  findWorstP[2,1]  -4.5761354536094273e-01
    cashProportion[1]  findWorstP[3,1]  -0.739166589670147
    cashProportion[1]  findWorstP[4,1]  -4.6277549603748486e-01
    cashProportion[1]  findWorstP[5,1]  -9.9243270065748668e-01
    cashProportion[1]  findWorstP[6,1]  -4.6165387500721344e-01
    cashProportion[1]  findWorstP[7,1]  -5.4204214377667870e-01
    cashProportion[1]  findWorstP[8,1]  -8.0402010050251260e-01
    cashProportion[1]  findWorstP[9,1]  -9.0774991489844548e-01
    cashProportion[2]  allocateAllCash  1
    cashProportion[2]  findWorstP[1,2]  -6.4107700937575129e-01
    cashProportion[2]  findWorstP[2,1]  4.5761354536094273e-01
    cashProportion[2]  findWorstP[2,3]  4.5761354536094273e-01
    cashProportion[2]  findWorstP[2,4]  4.5761354536094273e-01
    cashProportion[2]  findWorstP[2,5]  4.5761354536094273e-01
    cashProportion[2]  findWorstP[2,6]  4.5761354536094273e-01
    cashProportion[2]  findWorstP[2,7]  4.5761354536094273e-01
    cashProportion[2]  findWorstP[2,8]  4.5761354536094273e-01
    cashProportion[2]  findWorstP[2,9]  4.5761354536094273e-01
    cashProportion[2]  findWorstP[3,2]  -0.739166589670147
    cashProportion[2]  findWorstP[4,2]  -4.6277549603748486e-01
    cashProportion[2]  findWorstP[5,2]  -9.9243270065748668e-01
    cashProportion[2]  findWorstP[6,2]  -4.6165387500721344e-01
    cashProportion[2]  findWorstP[7,2]  -5.4204214377667870e-01
    cashProportion[2]  findWorstP[8,2]  -8.0402010050251260e-01
    cashProportion[2]  findWorstP[9,2]  -9.0774991489844548e-01
    cashProportion[3]  allocateAllCash  1
    cashProportion[3]  findWorstP[1,3]  -6.4107700937575129e-01
    cashProportion[3]  findWorstP[2,3]  -4.5761354536094273e-01
    cashProportion[3]  findWorstP[3,1]  0.739166589670147
    cashProportion[3]  findWorstP[3,2]  0.739166589670147
    cashProportion[3]  findWorstP[3,4]  0.739166589670147
    cashProportion[3]  findWorstP[3,5]  0.739166589670147
    cashProportion[3]  findWorstP[3,6]  0.739166589670147
    cashProportion[3]  findWorstP[3,7]  0.739166589670147
    cashProportion[3]  findWorstP[3,8]  0.739166589670147
    cashProportion[3]  findWorstP[3,9]  0.739166589670147
    cashProportion[3]  findWorstP[4,3]  -4.6277549603748486e-01
    cashProportion[3]  findWorstP[5,3]  -9.9243270065748668e-01
    cashProportion[3]  findWorstP[6,3]  -4.6165387500721344e-01
    cashProportion[3]  findWorstP[7,3]  -5.4204214377667870e-01
    cashProportion[3]  findWorstP[8,3]  -8.0402010050251260e-01
    cashProportion[3]  findWorstP[9,3]  -9.0774991489844548e-01
    cashProportion[4]  allocateAllCash  1
    cashProportion[4]  findWorstP[1,4]  -6.4107700937575129e-01
    cashProportion[4]  findWorstP[2,4]  -4.5761354536094273e-01
    cashProportion[4]  findWorstP[3,4]  -0.739166589670147
    cashProportion[4]  findWorstP[4,1]  4.6277549603748486e-01
    cashProportion[4]  findWorstP[4,2]  4.6277549603748486e-01
    cashProportion[4]  findWorstP[4,3]  4.6277549603748486e-01
    cashProportion[4]  findWorstP[4,5]  4.6277549603748486e-01
    cashProportion[4]  findWorstP[4,6]  4.6277549603748486e-01
    cashProportion[4]  findWorstP[4,7]  4.6277549603748486e-01
    cashProportion[4]  findWorstP[4,8]  4.6277549603748486e-01
    cashProportion[4]  findWorstP[4,9]  4.6277549603748486e-01
    cashProportion[4]  findWorstP[5,4]  -9.9243270065748668e-01
    cashProportion[4]  findWorstP[6,4]  -4.6165387500721344e-01
    cashProportion[4]  findWorstP[7,4]  -5.4204214377667870e-01
    cashProportion[4]  findWorstP[8,4]  -8.0402010050251260e-01
    cashProportion[4]  findWorstP[9,4]  -9.0774991489844548e-01
    cashProportion[5]  allocateAllCash  1
    cashProportion[5]  findWorstP[1,5]  -6.4107700937575129e-01
    cashProportion[5]  findWorstP[2,5]  -4.5761354536094273e-01
    cashProportion[5]  findWorstP[3,5]  -0.739166589670147
    cashProportion[5]  findWorstP[4,5]  -4.6277549603748486e-01
    cashProportion[5]  findWorstP[5,1]  9.9243270065748668e-01
    cashProportion[5]  findWorstP[5,2]  9.9243270065748668e-01
    cashProportion[5]  findWorstP[5,3]  9.9243270065748668e-01
    cashProportion[5]  findWorstP[5,4]  9.9243270065748668e-01
    cashProportion[5]  findWorstP[5,6]  9.9243270065748668e-01
    cashProportion[5]  findWorstP[5,7]  9.9243270065748668e-01
    cashProportion[5]  findWorstP[5,8]  9.9243270065748668e-01
    cashProportion[5]  findWorstP[5,9]  9.9243270065748668e-01
    cashProportion[5]  findWorstP[6,5]  -4.6165387500721344e-01
    cashProportion[5]  findWorstP[7,5]  -5.4204214377667870e-01
    cashProportion[5]  findWorstP[8,5]  -8.0402010050251260e-01
    cashProportion[5]  findWorstP[9,5]  -9.0774991489844548e-01
    cashProportion[6]  allocateAllCash  1
    cashProportion[6]  findWorstP[1,6]  -6.4107700937575129e-01
    cashProportion[6]  findWorstP[2,6]  -4.5761354536094273e-01
    cashProportion[6]  findWorstP[3,6]  -0.739166589670147
    cashProportion[6]  findWorstP[4,6]  -4.6277549603748486e-01
    cashProportion[6]  findWorstP[5,6]  -9.9243270065748668e-01
    cashProportion[6]  findWorstP[6,1]  4.6165387500721344e-01
    cashProportion[6]  findWorstP[6,2]  4.6165387500721344e-01
    cashProportion[6]  findWorstP[6,3]  4.6165387500721344e-01
    cashProportion[6]  findWorstP[6,4]  4.6165387500721344e-01
    cashProportion[6]  findWorstP[6,5]  4.6165387500721344e-01
    cashProportion[6]  findWorstP[6,7]  4.6165387500721344e-01
    cashProportion[6]  findWorstP[6,8]  4.6165387500721344e-01
    cashProportion[6]  findWorstP[6,9]  4.6165387500721344e-01
    cashProportion[6]  findWorstP[7,6]  -5.4204214377667870e-01
    cashProportion[6]  findWorstP[8,6]  -8.0402010050251260e-01
    cashProportion[6]  findWorstP[9,6]  -9.0774991489844548e-01
    cashProportion[7]  allocateAllCash  1
    cashProportion[7]  findWorstP[1,7]  -6.4107700937575129e-01
    cashProportion[7]  findWorstP[2,7]  -4.5761354536094273e-01
    cashProportion[7]  findWorstP[3,7]  -0.739166589670147
    cashProportion[7]  findWorstP[4,7]  -4.6277549603748486e-01
    cashProportion[7]  findWorstP[5,7]  -9.9243270065748668e-01
    cashProportion[7]  findWorstP[6,7]  -4.6165387500721344e-01
    cashProportion[7]  findWorstP[7,1]  5.4204214377667870e-01
    cashProportion[7]  findWorstP[7,2]  5.4204214377667870e-01
    cashProportion[7]  findWorstP[7,3]  5.4204214377667870e-01
    cashProportion[7]  findWorstP[7,4]  5.4204214377667870e-01
    cashProportion[7]  findWorstP[7,5]  5.4204214377667870e-01
    cashProportion[7]  findWorstP[7,6]  5.4204214377667870e-01
    cashProportion[7]  findWorstP[7,8]  5.4204214377667870e-01
    cashProportion[7]  findWorstP[7,9]  5.4204214377667870e-01
    cashProportion[7]  findWorstP[8,7]  -8.0402010050251260e-01
    cashProportion[7]  findWorstP[9,7]  -9.0774991489844548e-01
    cashProportion[8]  allocateAllCash  1
    cashProportion[8]  findWorstP[1,8]  -6.4107700937575129e-01
    cashProportion[8]  findWorstP[2,8]  -4.5761354536094273e-01
    cashProportion[8]  findWorstP[3,8]  -0.739166589670147
    cashProportion[8]  findWorstP[4,8]  -4.6277549603748486e-01
    cashProportion[8]  findWorstP[5,8]  -9.9243270065748668e-01
    cashProportion[8]  findWorstP[6,8]  -4.6165387500721344e-01
    cashProportion[8]  findWorstP[7,8]  -5.4204214377667870e-01
    cashProportion[8]  findWorstP[8,1]  8.0402010050251260e-01
    cashProportion[8]  findWorstP[8,2]  8.0402010050251260e-01
    cashProportion[8]  findWorstP[8,3]  8.0402010050251260e-01
    cashProportion[8]  findWorstP[8,4]  8.0402010050251260e-01
    cashProportion[8]  findWorstP[8,5]  8.0402010050251260e-01
    cashProportion[8]  findWorstP[8,6]  8.0402010050251260e-01
    cashProportion[8]  findWorstP[8,7]  8.0402010050251260e-01
    cashProportion[8]  findWorstP[8,9]  8.0402010050251260e-01
    cashProportion[8]  findWorstP[9,8]  -9.0774991489844548e-01
    cashProportion[9]  allocateAllCash  1
    cashProportion[9]  findWorstP[1,9]  -6.4107700937575129e-01
    cashProportion[9]  findWorstP[2,9]  -4.5761354536094273e-01
    cashProportion[9]  findWorstP[3,9]  -0.739166589670147
    cashProportion[9]  findWorstP[4,9]  -4.6277549603748486e-01
    cashProportion[9]  findWorstP[5,9]  -9.9243270065748668e-01
    cashProportion[9]  findWorstP[6,9]  -4.6165387500721344e-01
    cashProportion[9]  findWorstP[7,9]  -5.4204214377667870e-01
    cashProportion[9]  findWorstP[8,9]  -8.0402010050251260e-01
    cashProportion[9]  findWorstP[9,1]  9.0774991489844548e-01
    cashProportion[9]  findWorstP[9,2]  9.0774991489844548e-01
    cashProportion[9]  findWorstP[9,3]  9.0774991489844548e-01
    cashProportion[9]  findWorstP[9,4]  9.0774991489844548e-01
    cashProportion[9]  findWorstP[9,5]  9.0774991489844548e-01
    cashProportion[9]  findWorstP[9,6]  9.0774991489844548e-01
    cashProportion[9]  findWorstP[9,7]  9.0774991489844548e-01
    cashProportion[9]  findWorstP[9,8]  9.0774991489844548e-01
    MARKER    'MARKER'                 'INTORG'
    x[1,1]    allocateEach[1]  1
    x[1,1]    findWorstP[1,2]  3.5892299062424871e-01
    x[1,1]    findWorstP[1,3]  3.5892299062424871e-01
    x[1,1]    findWorstP[1,4]  3.5892299062424871e-01
    x[1,1]    findWorstP[1,5]  3.5892299062424871e-01
    x[1,1]    findWorstP[1,6]  3.5892299062424871e-01
    x[1,1]    findWorstP[1,7]  3.5892299062424871e-01
    x[1,1]    findWorstP[1,8]  3.5892299062424871e-01
    x[1,1]    findWorstP[1,9]  3.5892299062424871e-01
    x[1,1]    findWorstP[2,1]  -5.4238645463905732e-01
    x[1,1]    findWorstP[3,1]  -2.6083341032985308e-01
    x[1,1]    findWorstP[4,1]  -5.3722450396251509e-01
    x[1,1]    findWorstP[5,1]  -7.5672993425133350e-03
    x[1,1]    findWorstP[6,1]  -5.3834612499278667e-01
    x[1,1]    findWorstP[7,1]  -4.5795785622332125e-01
    x[1,1]    findWorstP[8,1]  -1.9597989949748743e-01
    x[1,1]    findWorstP[9,1]  -0.0922500851015545
    x[2,1]    allocateEach[1]  1
    x[2,1]    findWorstP[1,2]  -3.5892299062424871e-01
    x[2,1]    findWorstP[2,1]  5.4238645463905732e-01
    x[2,1]    findWorstP[2,3]  5.4238645463905732e-01
    x[2,1]    findWorstP[2,4]  5.4238645463905732e-01
    x[2,1]    findWorstP[2,5]  5.4238645463905732e-01
    x[2,1]    findWorstP[2,6]  5.4238645463905732e-01
    x[2,1]    findWorstP[2,7]  5.4238645463905732e-01
    x[2,1]    findWorstP[2,8]  5.4238645463905732e-01
    x[2,1]    findWorstP[2,9]  5.4238645463905732e-01
    x[2,1]    findWorstP[3,2]  -2.6083341032985308e-01
    x[2,1]    findWorstP[4,2]  -5.3722450396251509e-01
    x[2,1]    findWorstP[5,2]  -7.5672993425133350e-03
    x[2,1]    findWorstP[6,2]  -5.3834612499278667e-01
    x[2,1]    findWorstP[7,2]  -4.5795785622332125e-01
    x[2,1]    findWorstP[8,2]  -1.9597989949748743e-01
    x[2,1]    findWorstP[9,2]  -0.0922500851015545
    x[3,1]    allocateEach[1]  1
    x[3,1]    findWorstP[1,3]  -3.5892299062424871e-01
    x[3,1]    findWorstP[2,3]  -5.4238645463905732e-01
    x[3,1]    findWorstP[3,1]  2.6083341032985308e-01
    x[3,1]    findWorstP[3,2]  2.6083341032985308e-01
    x[3,1]    findWorstP[3,4]  2.6083341032985308e-01
    x[3,1]    findWorstP[3,5]  2.6083341032985308e-01
    x[3,1]    findWorstP[3,6]  2.6083341032985308e-01
    x[3,1]    findWorstP[3,7]  2.6083341032985308e-01
    x[3,1]    findWorstP[3,8]  2.6083341032985308e-01
    x[3,1]    findWorstP[3,9]  2.6083341032985308e-01
    x[3,1]    findWorstP[4,3]  -5.3722450396251509e-01
    x[3,1]    findWorstP[5,3]  -7.5672993425133350e-03
    x[3,1]    findWorstP[6,3]  -5.3834612499278667e-01
    x[3,1]    findWorstP[7,3]  -4.5795785622332125e-01
    x[3,1]    findWorstP[8,3]  -1.9597989949748743e-01
    x[3,1]    findWorstP[9,3]  -0.0922500851015545
    x[4,1]    allocateEach[1]  1
    x[4,1]    findWorstP[1,4]  -3.5892299062424871e-01
    x[4,1]    findWorstP[2,4]  -5.4238645463905732e-01
    x[4,1]    findWorstP[3,4]  -2.6083341032985308e-01
    x[4,1]    findWorstP[4,1]  5.3722450396251509e-01
    x[4,1]    findWorstP[4,2]  5.3722450396251509e-01
    x[4,1]    findWorstP[4,3]  5.3722450396251509e-01
    x[4,1]    findWorstP[4,5]  5.3722450396251509e-01
    x[4,1]    findWorstP[4,6]  5.3722450396251509e-01
    x[4,1]    findWorstP[4,7]  5.3722450396251509e-01
    x[4,1]    findWorstP[4,8]  5.3722450396251509e-01
    x[4,1]    findWorstP[4,9]  5.3722450396251509e-01
    x[4,1]    findWorstP[5,4]  -7.5672993425133350e-03
    x[4,1]    findWorstP[6,4]  -5.3834612499278667e-01
    x[4,1]    findWorstP[7,4]  -4.5795785622332125e-01
    x[4,1]    findWorstP[8,4]  -1.9597989949748743e-01
    x[4,1]    findWorstP[9,4]  -0.0922500851015545
    x[5,1]    allocateEach[1]  1
    x[5,1]    findWorstP[1,5]  -3.5892299062424871e-01
    x[5,1]    findWorstP[2,5]  -5.4238645463905732e-01
    x[5,1]    findWorstP[3,5]  -2.6083341032985308e-01
    x[5,1]    findWorstP[4,5]  -5.3722450396251509e-01
    x[5,1]    findWorstP[5,1]  7.5672993425133350e-03
    x[5,1]    findWorstP[5,2]  7.5672993425133350e-03
    x[5,1]    findWorstP[5,3]  7.5672993425133350e-03
    x[5,1]    findWorstP[5,4]  7.5672993425133350e-03
    x[5,1]    findWorstP[5,6]  7.5672993425133350e-03
    x[5,1]    findWorstP[5,7]  7.5672993425133350e-03
    x[5,1]    findWorstP[5,8]  7.5672993425133350e-03
    x[5,1]    findWorstP[5,9]  7.5672993425133350e-03
    x[5,1]    findWorstP[6,5]  -5.3834612499278667e-01
    x[5,1]    findWorstP[7,5]  -4.5795785622332125e-01
    x[5,1]    findWorstP[8,5]  -1.9597989949748743e-01
    x[5,1]    findWorstP[9,5]  -0.0922500851015545
    x[6,1]    allocateEach[1]  1
    x[6,1]    findWorstP[1,6]  -3.5892299062424871e-01
    x[6,1]    findWorstP[2,6]  -5.4238645463905732e-01
    x[6,1]    findWorstP[3,6]  -2.6083341032985308e-01
    x[6,1]    findWorstP[4,6]  -5.3722450396251509e-01
    x[6,1]    findWorstP[5,6]  -7.5672993425133350e-03
    x[6,1]    findWorstP[6,1]  5.3834612499278667e-01
    x[6,1]    findWorstP[6,2]  5.3834612499278667e-01
    x[6,1]    findWorstP[6,3]  5.3834612499278667e-01
    x[6,1]    findWorstP[6,4]  5.3834612499278667e-01
    x[6,1]    findWorstP[6,5]  5.3834612499278667e-01
    x[6,1]    findWorstP[6,7]  5.3834612499278667e-01
    x[6,1]    findWorstP[6,8]  5.3834612499278667e-01
    x[6,1]    findWorstP[6,9]  5.3834612499278667e-01
    x[6,1]    findWorstP[7,6]  -4.5795785622332125e-01
    x[6,1]    findWorstP[8,6]  -1.9597989949748743e-01
    x[6,1]    findWorstP[9,6]  -0.0922500851015545
    x[7,1]    allocateEach[1]  1
    x[7,1]    findWorstP[1,7]  -3.5892299062424871e-01
    x[7,1]    findWorstP[2,7]  -5.4238645463905732e-01
    x[7,1]    findWorstP[3,7]  -2.6083341032985308e-01
    x[7,1]    findWorstP[4,7]  -5.3722450396251509e-01
    x[7,1]    findWorstP[5,7]  -7.5672993425133350e-03
    x[7,1]    findWorstP[6,7]  -5.3834612499278667e-01
    x[7,1]    findWorstP[7,1]  4.5795785622332125e-01
    x[7,1]    findWorstP[7,2]  4.5795785622332125e-01
    x[7,1]    findWorstP[7,3]  4.5795785622332125e-01
    x[7,1]    findWorstP[7,4]  4.5795785622332125e-01
    x[7,1]    findWorstP[7,5]  4.5795785622332125e-01
    x[7,1]    findWorstP[7,6]  4.5795785622332125e-01
    x[7,1]    findWorstP[7,8]  4.5795785622332125e-01
    x[7,1]    findWorstP[7,9]  4.5795785622332125e-01
    x[7,1]    findWorstP[8,7]  -1.9597989949748743e-01
    x[7,1]    findWorstP[9,7]  -0.0922500851015545
    x[8,1]    allocateEach[1]  1
    x[8,1]    findWorstP[1,8]  -3.5892299062424871e-01
    x[8,1]    findWorstP[2,8]  -5.4238645463905732e-01
    x[8,1]    findWorstP[3,8]  -2.6083341032985308e-01
    x[8,1]    findWorstP[4,8]  -5.3722450396251509e-01
    x[8,1]    findWorstP[5,8]  -7.5672993425133350e-03
    x[8,1]    findWorstP[6,8]  -5.3834612499278667e-01
    x[8,1]    findWorstP[7,8]  -4.5795785622332125e-01
    x[8,1]    findWorstP[8,1]  1.9597989949748743e-01
    x[8,1]    findWorstP[8,2]  1.9597989949748743e-01
    x[8,1]    findWorstP[8,3]  1.9597989949748743e-01
    x[8,1]    findWorstP[8,4]  1.9597989949748743e-01
    x[8,1]    findWorstP[8,5]  1.9597989949748743e-01
    x[8,1]    findWorstP[8,6]  1.9597989949748743e-01
    x[8,1]    findWorstP[8,7]  1.9597989949748743e-01
    x[8,1]    findWorstP[8,9]  1.9597989949748743e-01
    x[8,1]    findWorstP[9,8]  -0.0922500851015545
    x[9,1]    allocateEach[1]  1
    x[9,1]    findWorstP[1,9]  -3.5892299062424871e-01
    x[9,1]    findWorstP[2,9]  -5.4238645463905732e-01
    x[9,1]    findWorstP[3,9]  -2.6083341032985308e-01
    x[9,1]    findWorstP[4,9]  -5.3722450396251509e-01
    x[9,1]    findWorstP[5,9]  -7.5672993425133350e-03
    x[9,1]    findWorstP[6,9]  -5.3834612499278667e-01
    x[9,1]    findWorstP[7,9]  -4.5795785622332125e-01
    x[9,1]    findWorstP[8,9]  -1.9597989949748743e-01
    x[9,1]    findWorstP[9,1]  0.0922500851015545
    x[9,1]    findWorstP[9,2]  0.0922500851015545
    x[9,1]    findWorstP[9,3]  0.0922500851015545
    x[9,1]    findWorstP[9,4]  0.0922500851015545
    x[9,1]    findWorstP[9,5]  0.0922500851015545
    x[9,1]    findWorstP[9,6]  0.0922500851015545
    x[9,1]    findWorstP[9,7]  0.0922500851015545
    x[9,1]    findWorstP[9,8]  0.0922500851015545
    MARKER    'MARKER'                 'INTEND'
RHS
    RHS1      allocateEach[1]  1
    RHS1      allocateAllCash  1
BOUNDS
 UP BND1      z         1
 MI BND1      cashProportion[1]
 UP BND1      cashProportion[1]  1
 MI BND1      cashProportion[2]
 UP BND1      cashProportion[2]  1
 MI BND1      cashProportion[3]
 UP BND1      cashProportion[3]  1
 MI BND1      cashProportion[4]
 UP BND1      cashProportion[4]  1
 MI BND1      cashProportion[5]
 UP BND1      cashProportion[5]  1
 MI BND1      cashProportion[6]
 UP BND1      cashProportion[6]  1
 MI BND1      cashProportion[7]
 UP BND1      cashProportion[7]  1
 MI BND1      cashProportion[8]
 UP BND1      cashProportion[8]  1
 MI BND1      cashProportion[9]
 UP BND1      cashProportion[9]  1
 BV BND1      x[1,1]  
 BV BND1      x[2,1]  
 BV BND1      x[3,1]  
 BV BND1      x[4,1]  
 BV BND1      x[5,1]  
 BV BND1      x[6,1]  
 BV BND1      x[7,1]  
 BV BND1      x[8,1]  
 BV BND1      x[9,1]  
ENDATA
